joueur/fichiers_opb/map4.opb
* carte map4.map
+1 x1 +1 x31 +1 x61 +1 x91 +1 x121 +1 x7 +1 x37 +1 x67 +1 x97 +1 x127 +1 x13 +1 x43 +1 x73 +1 x103 +1 x133 +1 x19 +1 x49 +1 x79 +1 x109 +1 x139 +1 x25 +1 x55 +1 x85 +1 x115 +1 x145 = 2; * comptage total de T
+1 x2 +1 x32 +1 x62 +1 x92 +1 x122 +1 x8 +1 x38 +1 x68 +1 x98 +1 x128 +1 x14 +1 x44 +1 x74 +1 x104 +1 x134 +1 x20 +1 x50 +1 x80 +1 x110 +1 x140 +1 x26 +1 x56 +1 x86 +1 x116 +1 x146 = 2; * comptage total de S
+1 x3 +1 x33 +1 x63 +1 x93 +1 x123 +1 x9 +1 x39 +1 x69 +1 x99 +1 x129 +1 x15 +1 x45 +1 x75 +1 x105 +1 x135 +1 x21 +1 x51 +1 x81 +1 x111 +1 x141 +1 x27 +1 x57 +1 x87 +1 x117 +1 x147 = 2; * comptage total de C
+1 x5 +1 x35 +1 x65 +1 x95 +1 x125 +1 x11 +1 x41 +1 x71 +1 x101 +1 x131 +1 x17 +1 x47 +1 x77 +1 x107 +1 x137 +1 x23 +1 x53 +1 x83 +1 x113 +1 x143 +1 x29 +1 x59 +1 x89 +1 x119 +1 x149 = 12; * comptage total de s
+1 x6 +1 x36 +1 x66 +1 x96 +1 x126 +1 x12 +1 x42 +1 x72 +1 x102 +1 x132 +1 x18 +1 x48 +1 x78 +1 x108 +1 x138 +1 x24 +1 x54 +1 x84 +1 x114 +1 x144 +1 x30 +1 x60 +1 x90 +1 x120 +1 x150 = 13; * comptage total de l
+1 x1 +1 x2 +1 x3 +1 x4 = 1; * unicite animal case (0,0)
+1 x5 +1 x6 = 1; * unicite type terrain case (0,0)
+1 ~x2 +1 x5 >= 1; * non requin ou eau (0,0)
+1 ~x1 +1 x6 >= 1; * non tigre ou terre (0,0)
+1 x31 +1 x32 +1 x33 +1 x34 = 1; * unicite animal case (0,1)
+1 x35 +1 x36 = 1; * unicite type terrain case (0,1)
+1 ~x32 +1 x35 >= 1; * non requin ou eau (0,1)
+1 ~x31 +1 x36 >= 1; * non tigre ou terre (0,1)
+1 x61 +1 x62 +1 x63 +1 x64 = 1; * unicite animal case (0,2)
+1 x65 +1 x66 = 1; * unicite type terrain case (0,2)
+1 ~x62 +1 x65 >= 1; * non requin ou eau (0,2)
+1 ~x61 +1 x66 >= 1; * non tigre ou terre (0,2)
+1 x91 +1 x92 +1 x93 +1 x94 = 1; * unicite animal case (0,3)
+1 x95 +1 x96 = 1; * unicite type terrain case (0,3)
+1 ~x92 +1 x95 >= 1; * non requin ou eau (0,3)
+1 ~x91 +1 x96 >= 1; * non tigre ou terre (0,3)
+1 x121 +1 x122 +1 x123 +1 x124 = 1; * unicite animal case (0,4)
+1 x125 +1 x126 = 1; * unicite type terrain case (0,4)
+1 ~x122 +1 x125 >= 1; * non requin ou eau (0,4)
+1 ~x121 +1 x126 >= 1; * non tigre ou terre (0,4)
+1 x7 +1 x8 +1 x9 +1 x10 = 1; * unicite animal case (1,0)
+1 x11 +1 x12 = 1; * unicite type terrain case (1,0)
+1 ~x8 +1 x11 >= 1; * non requin ou eau (1,0)
+1 ~x7 +1 x12 >= 1; * non tigre ou terre (1,0)
+1 x37 +1 x38 +1 x39 +1 x40 = 1; * unicite animal case (1,1)
+1 x41 +1 x42 = 1; * unicite type terrain case (1,1)
+1 ~x38 +1 x41 >= 1; * non requin ou eau (1,1)
+1 ~x37 +1 x42 >= 1; * non tigre ou terre (1,1)
+1 x67 +1 x68 +1 x69 +1 x70 = 1; * unicite animal case (1,2)
+1 x71 +1 x72 = 1; * unicite type terrain case (1,2)
+1 ~x68 +1 x71 >= 1; * non requin ou eau (1,2)
+1 ~x67 +1 x72 >= 1; * non tigre ou terre (1,2)
+1 x97 +1 x98 +1 x99 +1 x100 = 1; * unicite animal case (1,3)
+1 x101 +1 x102 = 1; * unicite type terrain case (1,3)
+1 ~x98 +1 x101 >= 1; * non requin ou eau (1,3)
+1 ~x97 +1 x102 >= 1; * non tigre ou terre (1,3)
+1 x127 +1 x128 +1 x129 +1 x130 = 1; * unicite animal case (1,4)
+1 x131 +1 x132 = 1; * unicite type terrain case (1,4)
+1 ~x128 +1 x131 >= 1; * non requin ou eau (1,4)
+1 ~x127 +1 x132 >= 1; * non tigre ou terre (1,4)
+1 x13 +1 x14 +1 x15 +1 x16 = 1; * unicite animal case (2,0)
+1 x17 +1 x18 = 1; * unicite type terrain case (2,0)
+1 ~x14 +1 x17 >= 1; * non requin ou eau (2,0)
+1 ~x13 +1 x18 >= 1; * non tigre ou terre (2,0)
+1 x43 +1 x44 +1 x45 +1 x46 = 1; * unicite animal case (2,1)
+1 x47 +1 x48 = 1; * unicite type terrain case (2,1)
+1 ~x44 +1 x47 >= 1; * non requin ou eau (2,1)
+1 ~x43 +1 x48 >= 1; * non tigre ou terre (2,1)
+1 x73 +1 x74 +1 x75 +1 x76 = 1; * unicite animal case (2,2)
+1 x77 +1 x78 = 1; * unicite type terrain case (2,2)
+1 ~x74 +1 x77 >= 1; * non requin ou eau (2,2)
+1 ~x73 +1 x78 >= 1; * non tigre ou terre (2,2)
+1 x103 +1 x104 +1 x105 +1 x106 = 1; * unicite animal case (2,3)
+1 x107 +1 x108 = 1; * unicite type terrain case (2,3)
+1 ~x104 +1 x107 >= 1; * non requin ou eau (2,3)
+1 ~x103 +1 x108 >= 1; * non tigre ou terre (2,3)
+1 x133 +1 x134 +1 x135 +1 x136 = 1; * unicite animal case (2,4)
+1 x137 +1 x138 = 1; * unicite type terrain case (2,4)
+1 ~x134 +1 x137 >= 1; * non requin ou eau (2,4)
+1 ~x133 +1 x138 >= 1; * non tigre ou terre (2,4)
+1 x19 +1 x20 +1 x21 +1 x22 = 1; * unicite animal case (3,0)
+1 x23 +1 x24 = 1; * unicite type terrain case (3,0)
+1 ~x20 +1 x23 >= 1; * non requin ou eau (3,0)
+1 ~x19 +1 x24 >= 1; * non tigre ou terre (3,0)
+1 x49 +1 x50 +1 x51 +1 x52 = 1; * unicite animal case (3,1)
+1 x53 +1 x54 = 1; * unicite type terrain case (3,1)
+1 ~x50 +1 x53 >= 1; * non requin ou eau (3,1)
+1 ~x49 +1 x54 >= 1; * non tigre ou terre (3,1)
+1 x79 +1 x80 +1 x81 +1 x82 = 1; * unicite animal case (3,2)
+1 x83 +1 x84 = 1; * unicite type terrain case (3,2)
+1 ~x80 +1 x83 >= 1; * non requin ou eau (3,2)
+1 ~x79 +1 x84 >= 1; * non tigre ou terre (3,2)
+1 x109 +1 x110 +1 x111 +1 x112 = 1; * unicite animal case (3,3)
+1 x113 +1 x114 = 1; * unicite type terrain case (3,3)
+1 ~x110 +1 x113 >= 1; * non requin ou eau (3,3)
+1 ~x109 +1 x114 >= 1; * non tigre ou terre (3,3)
+1 x139 +1 x140 +1 x141 +1 x142 = 1; * unicite animal case (3,4)
+1 x143 +1 x144 = 1; * unicite type terrain case (3,4)
+1 ~x140 +1 x143 >= 1; * non requin ou eau (3,4)
+1 ~x139 +1 x144 >= 1; * non tigre ou terre (3,4)
+1 x25 +1 x26 +1 x27 +1 x28 = 1; * unicite animal case (4,0)
+1 x29 +1 x30 = 1; * unicite type terrain case (4,0)
+1 ~x26 +1 x29 >= 1; * non requin ou eau (4,0)
+1 ~x25 +1 x30 >= 1; * non tigre ou terre (4,0)
+1 x55 +1 x56 +1 x57 +1 x58 = 1; * unicite animal case (4,1)
+1 x59 +1 x60 = 1; * unicite type terrain case (4,1)
+1 ~x56 +1 x59 >= 1; * non requin ou eau (4,1)
+1 ~x55 +1 x60 >= 1; * non tigre ou terre (4,1)
+1 x85 +1 x86 +1 x87 +1 x88 = 1; * unicite animal case (4,2)
+1 x89 +1 x90 = 1; * unicite type terrain case (4,2)
+1 ~x86 +1 x89 >= 1; * non requin ou eau (4,2)
+1 ~x85 +1 x90 >= 1; * non tigre ou terre (4,2)
+1 x115 +1 x116 +1 x117 +1 x118 = 1; * unicite animal case (4,3)
+1 x119 +1 x120 = 1; * unicite type terrain case (4,3)
+1 ~x116 +1 x119 >= 1; * non requin ou eau (4,3)
+1 ~x115 +1 x120 >= 1; * non tigre ou terre (4,3)
+1 x145 +1 x146 +1 x147 +1 x148 = 1; * unicite animal case (4,4)
+1 x149 +1 x150 = 1; * unicite type terrain case (4,4)
+1 ~x146 +1 x149 >= 1; * non requin ou eau (4,4)
+1 ~x145 +1 x150 >= 1; * non tigre ou terre (4,4)
+1 x40 = 1; * case de depart (1,1)
+1 x40 = 1; * R sur la case 1,1
+1 x37 +1 x38 +1 x39  = 0; * les autres animaux ne sont pas sur la case 1,1
+1 x41 = 1; * case sea  (1,1)
+1 x42 = 0; * case non land  (1,1)
+1 x1 +1 x31 +1 x61 +1 x7 +1 x67 +1 x13 +1 x43 +1 x73 = 0; * voisinage animal T de la case (1,1)
+1 x2 +1 x32 +1 x62 +1 x8 +1 x68 +1 x14 +1 x44 +1 x74 = 2; * voisinage animal S de la case (1,1)
+1 x3 +1 x33 +1 x63 +1 x9 +1 x69 +1 x15 +1 x45 +1 x75 = 0; * voisinage animal C de la case (1,1)
+1 x5 = 1; * case sea  (0,0)
+1 x6 = 0; * case non land  (0,0)
+1 x35 = 1; * case sea  (0,1)
+1 x36 = 0; * case non land  (0,1)
+1 x65 = 1; * case sea  (0,2)
+1 x66 = 0; * case non land  (0,2)
+1 x11 = 1; * case sea  (1,0)
+1 x12 = 0; * case non land  (1,0)
+1 x72 = 1; * case land (1,2)
+1 x71 = 0; * case non sea  (1,2)
+1 x17 = 1; * case sea  (2,0)
+1 x18 = 0; * case non land  (2,0)
+1 x47 = 1; * case sea  (2,1)
+1 x48 = 0; * case non land  (2,1)
+1 x78 = 1; * case land (2,2)
+1 x77 = 0; * case non sea  (2,2)
+1 x76 = 1; * R sur la case 2,2
+1 x73 +1 x74 +1 x75  = 0; * les autres animaux ne sont pas sur la case 2,2
+1 x37 +1 x67 +1 x97 +1 x43 +1 x103 +1 x49 +1 x79 +1 x109 = 1; * voisinage animal T de la case (2,2)
+1 x38 +1 x68 +1 x98 +1 x44 +1 x104 +1 x50 +1 x80 +1 x110 = 0; * voisinage animal S de la case (2,2)
+1 x39 +1 x69 +1 x99 +1 x45 +1 x105 +1 x51 +1 x81 +1 x111 = 0; * voisinage animal C de la case (2,2)
+1 x102 = 1; * case land (1,3)
+1 x101 = 0; * case non sea  (1,3)
+1 x108 = 1; * case land (2,3)
+1 x107 = 0; * case non sea  (2,3)
+1 x54 = 1; * case land (3,1)
+1 x53 = 0; * case non sea  (3,1)
+1 x84 = 1; * case land (3,2)
+1 x83 = 0; * case non sea  (3,2)
+1 x113 = 1; * case sea  (3,3)
+1 x114 = 0; * case non land  (3,3)
+1 x112 = 1; * R sur la case 3,3
+1 x109 +1 x110 +1 x111  = 0; * les autres animaux ne sont pas sur la case 3,3
+1 x73 +1 x103 +1 x133 +1 x79 +1 x139 +1 x85 +1 x115 +1 x145 = 1; * voisinage animal T de la case (3,3)
+1 x74 +1 x104 +1 x134 +1 x80 +1 x140 +1 x86 +1 x116 +1 x146 = 0; * voisinage animal S de la case (3,3)
+1 x75 +1 x105 +1 x135 +1 x81 +1 x141 +1 x87 +1 x117 +1 x147 = 0; * voisinage animal C de la case (3,3)
+1 x137 = 1; * case sea  (2,4)
+1 x138 = 0; * case non land  (2,4)
+1 x143 = 1; * case sea  (3,4)
+1 x144 = 0; * case non land  (3,4)
+1 x90 = 1; * case land (4,2)
+1 x89 = 0; * case non sea  (4,2)
+1 x120 = 1; * case land (4,3)
+1 x119 = 0; * case non sea  (4,3)
+1 x149 = 1; * case sea  (4,4)
+1 x150 = 0; * case non land  (4,4)
+1 x148 = 1; * R sur la case 4,4
+1 x145 +1 x146 +1 x147  = 0; * les autres animaux ne sont pas sur la case 4,4
+1 x109 +1 x139 +1 x115 = 0; * voisinage animal T de la case (4,4)
+1 x110 +1 x140 +1 x116 = 0; * voisinage animal S de la case (4,4)
+1 x111 +1 x141 +1 x117 = 0; * voisinage animal C de la case (4,4)
+1 x118 = 1; * R sur la case 4,3
+1 x115 +1 x116 +1 x117  = 0; * les autres animaux ne sont pas sur la case 4,3
+1 x79 +1 x109 +1 x139 +1 x85 +1 x145 = 0; * voisinage animal T de la case (4,3)
+1 x80 +1 x110 +1 x140 +1 x86 +1 x146 = 0; * voisinage animal S de la case (4,3)
+1 x81 +1 x111 +1 x141 +1 x87 +1 x147 = 0; * voisinage animal C de la case (4,3)
+1 x88 = 1; * R sur la case 4,2
+1 x85 +1 x86 +1 x87  = 0; * les autres animaux ne sont pas sur la case 4,2
+1 x49 +1 x79 +1 x109 +1 x55 +1 x115 = 0; * voisinage animal T de la case (4,2)
+1 x50 +1 x80 +1 x110 +1 x56 +1 x116 = 0; * voisinage animal S de la case (4,2)
+1 x51 +1 x81 +1 x111 +1 x57 +1 x117 = 1; * voisinage animal C de la case (4,2)
+1 x60 = 1; * case land (4,1)
+1 x59 = 0; * case non sea  (4,1)
+1 x57 = 1; * C sur la case 4,1
+1 x55 +1 x56 +1 x58  = 0; * les autres animaux ne sont pas sur la case 4,1
+1 x142 = 1; * R sur la case 3,4
+1 x139 +1 x140 +1 x141  = 0; * les autres animaux ne sont pas sur la case 3,4
+1 x103 +1 x133 +1 x109 +1 x115 +1 x145 = 1; * voisinage animal T de la case (3,4)
+1 x104 +1 x134 +1 x110 +1 x116 +1 x146 = 0; * voisinage animal S de la case (3,4)
+1 x105 +1 x135 +1 x111 +1 x117 +1 x147 = 0; * voisinage animal C de la case (3,4)
+1 x136 = 1; * R sur la case 2,4
+1 x133 +1 x134 +1 x135  = 0; * les autres animaux ne sont pas sur la case 2,4
+1 x97 +1 x127 +1 x103 +1 x109 +1 x139 = 1; * voisinage animal T de la case (2,4)
+1 x98 +1 x128 +1 x104 +1 x110 +1 x140 = 0; * voisinage animal S de la case (2,4)
+1 x99 +1 x129 +1 x105 +1 x111 +1 x141 = 0; * voisinage animal C de la case (2,4)
+1 x131 = 1; * case sea  (1,4)
+1 x132 = 0; * case non land  (1,4)
+1 x130 = 1; * R sur la case 1,4
+1 x127 +1 x128 +1 x129  = 0; * les autres animaux ne sont pas sur la case 1,4
+1 x91 +1 x121 +1 x97 +1 x103 +1 x133 = 2; * voisinage animal T de la case (1,4)
+1 x92 +1 x122 +1 x98 +1 x104 +1 x134 = 0; * voisinage animal S de la case (1,4)
+1 x93 +1 x123 +1 x99 +1 x105 +1 x135 = 0; * voisinage animal C de la case (1,4)
+1 x96 = 1; * case land (0,3)
+1 x95 = 0; * case non sea  (0,3)
+1 x126 = 1; * case land (0,4)
+1 x125 = 0; * case non sea  (0,4)
+1 x82 = 1; * R sur la case 3,2
+1 x79 +1 x80 +1 x81  = 0; * les autres animaux ne sont pas sur la case 3,2
+1 x43 +1 x73 +1 x103 +1 x49 +1 x109 +1 x55 +1 x85 +1 x115 = 1; * voisinage animal T de la case (3,2)
+1 x44 +1 x74 +1 x104 +1 x50 +1 x110 +1 x56 +1 x86 +1 x116 = 0; * voisinage animal S de la case (3,2)
+1 x45 +1 x75 +1 x105 +1 x51 +1 x111 +1 x57 +1 x87 +1 x117 = 1; * voisinage animal C de la case (3,2)
+1 x52 = 1; * R sur la case 3,1
+1 x49 +1 x50 +1 x51  = 0; * les autres animaux ne sont pas sur la case 3,1
+1 x13 +1 x43 +1 x73 +1 x19 +1 x79 +1 x25 +1 x55 +1 x85 = 0; * voisinage animal T de la case (3,1)
+1 x14 +1 x44 +1 x74 +1 x20 +1 x80 +1 x26 +1 x56 +1 x86 = 1; * voisinage animal S de la case (3,1)
+1 x15 +1 x45 +1 x75 +1 x21 +1 x81 +1 x27 +1 x57 +1 x87 = 2; * voisinage animal C de la case (3,1)
+1 x24 = 1; * case land (3,0)
+1 x23 = 0; * case non sea  (3,0)
+1 x30 = 1; * case land (4,0)
+1 x29 = 0; * case non sea  (4,0)
+1 x103 = 1; * T sur la case 2,3
+1 x104 +1 x105 +1 x106  = 0; * les autres animaux ne sont pas sur la case 2,3
+1 x25 = 0; * hypothese
